NAME : graph23
COMMENT : H Algorithm Solution by Oscar Riveros [http://twitter.com/maxtuno]
TYPE : TOUR
DIMENSION : 190
TOUR_SECTION
98
128
186
104
31
146
40
131
20
176
151
113
160
114
133
27
84
60
46
38
181
16
62
6
138
126
17
55
102
47
56
168
182
57
11
79
145
1
127
36
39
169
51
184
24
54
9
152
69
173
92
75
141
72
116
90
3
23
179
68
25
106
53
136
66
96
48
166
49
147
41
175
89
143
103
154
33
185
180
4
78
29
129
140
59
135
12
52
115
43
109
42
85
100
107
125
178
77
189
15
170
81
101
190
71
164
13
111
19
174
64
162
142
187
82
112
30
34
61
93
58
99
108
5
117
21
8
26
130
183
97
63
188
172
119
37
18
158
124
122
35
161
139
105
70
94
50
123
167
32
45
80
22
7
148
163
74
150
132
177
65
155
83
110
120
86
95
159
91
165
121
14
153
28
149
157
10
76
137
144
87
73
2
156
134
44
118
88
171
67
-1
EOF
